49 49
12 42
19 25
12 37
6 40
10 36
7 41
6 8
19 15
15 49
3 48
24 9
7 22
9 14
1 38
2 6
21 1
24 29
2 27
11 12
20 11
4 26
23 31
1 34
18 7
23 33
13 5
5 16
4 10
13 3
5 39
8 30
9 45
11 28
3 20
21 44
14 21
22 47
22 32
20 4
17 43
16 23
15 17
14 35
18 24
8 18
10 13
17 2
1 19
16 46
